WARNING: for repeatability, setting FPU to use double precision
============================[ Problem Statistics ]=============================
|                                                                             |
|  Number of variables:           309                                         |
|  Number of clauses:            1300                                         |
|  Parse time:                   0.00 s                                       |
|                                                                             |
============================[ Search Statistics ]==============================
| Conflicts |          ORIGINAL         |          LEARNT          | Progress |
|           |    Vars  Clauses Literals |    Limit  Clauses Lit/Cl |          |
===============================================================================
===============================================================================
restarts              : 1
conflicts             : 38             (inf /sec)
decisions             : 110            (0.00 % random) (inf /sec)
propagations          : 1062           (inf /sec)
conflict literals     : 211            (18.53 % deleted)
Memory used           : 5.00 MB
CPU time              : 0 s

UNSATISFIABLE
